SCIP version 5.0.0 [precision: 8 byte] [memory: block] [mode: optimized] [LP solver: NONE] [GitHash: 3bbd232]
Copyright (C) 2002-2017 Konrad-Zuse-Zentrum fuer Informationstechnik Berlin (ZIB)

External codes: 
  Readline EditLine w  GNU library for command line editing (gnu.org/s/readline)
  CppAD 20160000.1     Algorithmic Differentiation of C++ algorithms developed by B. Bell (www.coin-or.org/CppAD)
  ZLIB 1.2.5           General purpose compression library by J. Gailly and M. Adler (zlib.net)
  GMP 6.1.2            GNU Multiple Precision Arithmetic Library developed by T. Granlund (gmplib.org)

user parameter file <scip.set> not found - using default parameters

read problem <../../Split_data/output/parkin/9/1_sample_parkin.logreg>
============

File name	:	../../Split_data/output/parkin/9/1_sample_parkin.logreg
Problem name 	:	1_sample_parkin
Number of data	:	156
Number of var	:	22
The given data has linear independence

[dim=1] time: 0.003219
[dim=2] time: 0.00633
[dim=3] time: 0.00889
[dim=4] time: 0.011304
[dim=5] time: 0.013504
[dim=6] time: 0.01561
[dim=7] Time of forward = 0.017571sec.
AIC: 103.564
k: 6

[dim=22] time: 0.048298
[dim=21] time: 0.071847
[dim=20] time: 0.076559
[dim=19] time: 0.080713
[dim=18] time: 0.097748
[dim=17] time: 0.113861
[dim=16] time: 0.118101
[dim=15] time: 0.13467
[dim=14] time: 0.143679
[dim=13] time: 0.15119
[dim=12] time: 0.156007
[dim=11] time: 0.159802
[dim=10] time: 0.161668
[dim=9] time: 0.163327
[dim=8] Time of backward = 0.164688sec.
AIC: 95.9013
k: 9
